NAME : TSP_INST.7431411.tour
COMMENT : Length = 7431411
COMMENT : Found by LKH [Keld Helsgaun] Sat Oct 18 11:07:53 2025
TYPE : TOUR
DIMENSION : 100
TOUR_SECTION
1
30
67
40
48
35
23
25
31
44
2
7
85
26
6
77
29
8
45
84
94
43
52
83
3
63
36
74
32
24
11
72
17
79
93
87
73
34
33
92
41
27
53
37
4
62
58
91
69
20
39
55
15
59
90
56
100
19
57
54
96
98
71
18
12
97
47
70
50
42
68
9
13
61
66
81
16
60
64
82
89
14
46
95
22
28
21
38
10
51
99
75
76
65
88
78
5
86
80
49
-1
EOF
